
(set-logic HORN)
(declare-fun zero_70 () Int)
(declare-fun succ_68 (Int) Int)
(declare-datatypes ((Bool_191 0)) (((false_191) (true_191))))
(declare-fun diseqBool_83 (Bool_191 Bool_191) Bool)
(declare-fun isfalse_83 (Bool_191) Bool)
(declare-fun istrue_83 (Bool_191) Bool)
(assert (isfalse_83 false_191))
(assert (istrue_83 true_191))
(assert (diseqBool_83 false_191 true_191))
(assert (diseqBool_83 true_191 false_191))
(declare-fun and_191 (Bool_191 Bool_191 Bool_191) Bool)
(declare-fun or_194 (Bool_191 Bool_191 Bool_191) Bool)
(declare-fun hence_191 (Bool_191 Bool_191 Bool_191) Bool)
(declare-fun not_193 (Bool_191 Bool_191) Bool)
(assert (and_191 false_191 false_191 false_191))
(assert (and_191 false_191 true_191 false_191))
(assert (and_191 false_191 false_191 true_191))
(assert (and_191 true_191 true_191 true_191))
(assert (or_194 false_191 false_191 false_191))
(assert (or_194 true_191 true_191 false_191))
(assert (or_194 true_191 false_191 true_191))
(assert (or_194 true_191 true_191 true_191))
(assert (hence_191 true_191 false_191 false_191))
(assert (hence_191 false_191 true_191 false_191))
(assert (hence_191 true_191 false_191 true_191))
(assert (hence_191 true_191 true_191 true_191))
(assert (not_193 true_191 false_191))
(assert (not_193 false_191 true_191))
(declare-fun diseqInt (Int Int) Bool)
(declare-fun p_187 (Int Int) Bool)
(declare-fun iszero_68 (Int) Bool)
(declare-fun issucc_68 (Int) Bool)
(assert (forall ((x_28264 Int))
	(p_187 x_28264 (succ_68 x_28264))))
(assert (iszero_68 zero_70))
(assert (forall ((x_28266 Int))
	(issucc_68 (succ_68 x_28266))))
(assert (forall ((x_28267 Int))
	(diseqInt zero_70 (succ_68 x_28267))))
(assert (forall ((x_28268 Int))
	(diseqInt (succ_68 x_28268) zero_70)))
(assert (forall ((x_28269 Int) (x_28270 Int))
	(=> (diseqInt x_28269 x_28270) (diseqInt (succ_68 x_28269) (succ_68 x_28270)))))
(declare-fun leq_26 (Bool_191 Int Int) Bool)
(assert (forall ((x_28096 Bool_191) (x_28093 Int) (z_1103 Int))
	(=> (leq_26 x_28096 z_1103 x_28093) (leq_26 x_28096 (succ_68 z_1103) (succ_68 x_28093)))))
(assert (forall ((z_1103 Int))
	(leq_26 false_191 (succ_68 z_1103) zero_70)))
(assert (forall ((y_1161 Int))
	(leq_26 true_191 zero_70 y_1161)))
(assert (forall ((y_1163 Int) (x_28094 Int) (y_1162 Int))
	(=> (and true (diseqInt x_28094 x_28094) (leq_26 true_191 x_28094 x_28094) (leq_26 true_191 x_28094 y_1163) (leq_26 true_191 x_28094 y_1163) (leq_26 true_191 x_28094 y_1162) (leq_26 true_191 y_1162 y_1163)) false)))
(assert (forall ((y_1163 Int) (x_28094 Int) (y_1162 Int))
	(=> (and true (diseqInt y_1163 x_28094) (leq_26 true_191 x_28094 x_28094) (leq_26 false_191 x_28094 y_1163) (leq_26 true_191 x_28094 y_1163) (leq_26 true_191 x_28094 y_1162) (leq_26 true_191 y_1162 y_1163)) false)))
(assert (forall ((y_1163 Int) (x_28094 Int) (y_1162 Int))
	(=> (and true (diseqInt x_28094 x_28094) (leq_26 false_191 x_28094 x_28094) (leq_26 true_191 x_28094 y_1163) (leq_26 true_191 x_28094 y_1163) (leq_26 true_191 x_28094 y_1162) (leq_26 true_191 y_1162 y_1163)) false)))
(assert (forall ((y_1163 Int) (x_28094 Int) (y_1162 Int))
	(=> (and true (diseqInt y_1163 x_28094) (leq_26 false_191 x_28094 x_28094) (leq_26 false_191 x_28094 y_1163) (leq_26 true_191 x_28094 y_1163) (leq_26 true_191 x_28094 y_1162) (leq_26 true_191 y_1162 y_1163)) false)))
(assert (forall ((x_28094 Int) (y_1162 Int) (z_1104 Int))
	(=> (and true (diseqInt x_28094 x_28094) (leq_26 true_191 x_28094 x_28094) (leq_26 true_191 x_28094 y_1162) (leq_26 true_191 x_28094 z_1104) (leq_26 true_191 x_28094 y_1162) (leq_26 false_191 y_1162 z_1104)) false)))
(assert (forall ((x_28094 Int) (y_1162 Int) (z_1104 Int))
	(=> (and true (diseqInt y_1162 x_28094) (leq_26 true_191 x_28094 x_28094) (leq_26 false_191 x_28094 y_1162) (leq_26 true_191 x_28094 z_1104) (leq_26 true_191 x_28094 y_1162) (leq_26 false_191 y_1162 z_1104)) false)))
(assert (forall ((x_28094 Int) (y_1162 Int) (z_1104 Int))
	(=> (and true (diseqInt x_28094 x_28094) (leq_26 false_191 x_28094 x_28094) (leq_26 true_191 x_28094 y_1162) (leq_26 true_191 x_28094 z_1104) (leq_26 true_191 x_28094 y_1162) (leq_26 false_191 y_1162 z_1104)) false)))
(assert (forall ((x_28094 Int) (y_1162 Int) (z_1104 Int))
	(=> (and true (diseqInt y_1162 x_28094) (leq_26 false_191 x_28094 x_28094) (leq_26 false_191 x_28094 y_1162) (leq_26 true_191 x_28094 z_1104) (leq_26 true_191 x_28094 y_1162) (leq_26 false_191 y_1162 z_1104)) false)))
(assert (forall ((x_28095 Int) (y_1163 Int) (x_28094 Int))
	(=> (and true (diseqInt x_28094 x_28094) (leq_26 true_191 x_28095 x_28094) (leq_26 true_191 x_28094 y_1163) (leq_26 true_191 x_28094 y_1163) (leq_26 false_191 x_28094 x_28095) (leq_26 true_191 x_28095 y_1163)) false)))
(assert (forall ((x_28095 Int) (y_1163 Int) (x_28094 Int))
	(=> (and true (diseqInt y_1163 x_28094) (leq_26 true_191 x_28095 x_28094) (leq_26 false_191 x_28094 y_1163) (leq_26 true_191 x_28094 y_1163) (leq_26 false_191 x_28094 x_28095) (leq_26 true_191 x_28095 y_1163)) false)))
(assert (forall ((x_28095 Int) (y_1163 Int) (x_28094 Int))
	(=> (and true (diseqInt x_28094 x_28095) (leq_26 false_191 x_28095 x_28094) (leq_26 true_191 x_28094 y_1163) (leq_26 true_191 x_28094 y_1163) (leq_26 false_191 x_28094 x_28095) (leq_26 true_191 x_28095 y_1163)) false)))
(assert (forall ((x_28095 Int) (y_1163 Int) (x_28094 Int))
	(=> (and true (diseqInt y_1163 x_28095) (leq_26 false_191 x_28095 x_28094) (leq_26 false_191 x_28094 y_1163) (leq_26 true_191 x_28094 y_1163) (leq_26 false_191 x_28094 x_28095) (leq_26 true_191 x_28095 y_1163)) false)))
(assert (forall ((x_28095 Int) (x_28094 Int) (z_1104 Int))
	(=> (and true (diseqInt x_28094 x_28094) (leq_26 true_191 x_28095 x_28094) (leq_26 true_191 x_28094 x_28095) (leq_26 true_191 x_28094 z_1104) (leq_26 false_191 x_28094 x_28095) (leq_26 false_191 x_28095 z_1104)) false)))
(assert (forall ((x_28095 Int) (x_28094 Int) (z_1104 Int))
	(=> (and true (diseqInt x_28095 x_28094) (leq_26 true_191 x_28095 x_28094) (leq_26 false_191 x_28094 x_28095) (leq_26 true_191 x_28094 z_1104) (leq_26 false_191 x_28094 x_28095) (leq_26 false_191 x_28095 z_1104)) false)))
(assert (forall ((x_28095 Int) (x_28094 Int) (z_1104 Int))
	(=> (and true (diseqInt x_28094 x_28095) (leq_26 false_191 x_28095 x_28094) (leq_26 true_191 x_28094 x_28095) (leq_26 true_191 x_28094 z_1104) (leq_26 false_191 x_28094 x_28095) (leq_26 false_191 x_28095 z_1104)) false)))
(assert (forall ((x_28095 Int) (x_28094 Int) (z_1104 Int))
	(=> (and true (diseqInt x_28095 x_28095) (leq_26 false_191 x_28095 x_28094) (leq_26 false_191 x_28094 x_28095) (leq_26 true_191 x_28094 z_1104) (leq_26 false_191 x_28094 x_28095) (leq_26 false_191 x_28095 z_1104)) false)))
(assert (forall ((y_1163 Int) (x_28094 Int) (y_1162 Int))
	(=> (and true (diseqInt x_28094 y_1163) (leq_26 true_191 x_28094 y_1163) (leq_26 true_191 x_28094 y_1163) (leq_26 false_191 x_28094 y_1163) (leq_26 true_191 x_28094 y_1162) (leq_26 true_191 y_1162 y_1163)) false)))
(assert (forall ((y_1163 Int) (x_28094 Int) (y_1162 Int))
	(=> (and true (diseqInt y_1163 y_1163) (leq_26 true_191 x_28094 y_1163) (leq_26 false_191 x_28094 y_1163) (leq_26 false_191 x_28094 y_1163) (leq_26 true_191 x_28094 y_1162) (leq_26 true_191 y_1162 y_1163)) false)))
(assert (forall ((y_1163 Int) (x_28094 Int) (y_1162 Int))
	(=> (and true (diseqInt x_28094 x_28094) (leq_26 false_191 x_28094 y_1163) (leq_26 true_191 x_28094 y_1163) (leq_26 false_191 x_28094 y_1163) (leq_26 true_191 x_28094 y_1162) (leq_26 true_191 y_1162 y_1163)) false)))
(assert (forall ((y_1163 Int) (x_28094 Int) (y_1162 Int))
	(=> (and true (diseqInt y_1163 x_28094) (leq_26 false_191 x_28094 y_1163) (leq_26 false_191 x_28094 y_1163) (leq_26 false_191 x_28094 y_1163) (leq_26 true_191 x_28094 y_1162) (leq_26 true_191 y_1162 y_1163)) false)))
(assert (forall ((y_1164 Int) (x_28094 Int) (y_1162 Int))
	(=> (and true (diseqInt x_28094 y_1164) (leq_26 true_191 x_28094 y_1164) (leq_26 true_191 x_28094 y_1162) (leq_26 false_191 x_28094 y_1164) (leq_26 true_191 x_28094 y_1162) (leq_26 false_191 y_1162 y_1164)) false)))
(assert (forall ((y_1164 Int) (x_28094 Int) (y_1162 Int))
	(=> (and true (diseqInt y_1162 y_1164) (leq_26 true_191 x_28094 y_1164) (leq_26 false_191 x_28094 y_1162) (leq_26 false_191 x_28094 y_1164) (leq_26 true_191 x_28094 y_1162) (leq_26 false_191 y_1162 y_1164)) false)))
(assert (forall ((y_1164 Int) (x_28094 Int) (y_1162 Int))
	(=> (and true (diseqInt x_28094 x_28094) (leq_26 false_191 x_28094 y_1164) (leq_26 true_191 x_28094 y_1162) (leq_26 false_191 x_28094 y_1164) (leq_26 true_191 x_28094 y_1162) (leq_26 false_191 y_1162 y_1164)) false)))
(assert (forall ((y_1164 Int) (x_28094 Int) (y_1162 Int))
	(=> (and true (diseqInt y_1162 x_28094) (leq_26 false_191 x_28094 y_1164) (leq_26 false_191 x_28094 y_1162) (leq_26 false_191 x_28094 y_1164) (leq_26 true_191 x_28094 y_1162) (leq_26 false_191 y_1162 y_1164)) false)))
(assert (forall ((x_28095 Int) (y_1163 Int) (x_28094 Int))
	(=> (and true (diseqInt x_28094 y_1163) (leq_26 true_191 x_28095 y_1163) (leq_26 true_191 x_28094 y_1163) (leq_26 false_191 x_28094 y_1163) (leq_26 false_191 x_28094 x_28095) (leq_26 true_191 x_28095 y_1163)) false)))
(assert (forall ((x_28095 Int) (y_1163 Int) (x_28094 Int))
	(=> (and true (diseqInt y_1163 y_1163) (leq_26 true_191 x_28095 y_1163) (leq_26 false_191 x_28094 y_1163) (leq_26 false_191 x_28094 y_1163) (leq_26 false_191 x_28094 x_28095) (leq_26 true_191 x_28095 y_1163)) false)))
(assert (forall ((x_28095 Int) (y_1163 Int) (x_28094 Int))
	(=> (and true (diseqInt x_28094 x_28095) (leq_26 false_191 x_28095 y_1163) (leq_26 true_191 x_28094 y_1163) (leq_26 false_191 x_28094 y_1163) (leq_26 false_191 x_28094 x_28095) (leq_26 true_191 x_28095 y_1163)) false)))
(assert (forall ((x_28095 Int) (y_1163 Int) (x_28094 Int))
	(=> (and true (diseqInt y_1163 x_28095) (leq_26 false_191 x_28095 y_1163) (leq_26 false_191 x_28094 y_1163) (leq_26 false_191 x_28094 y_1163) (leq_26 false_191 x_28094 x_28095) (leq_26 true_191 x_28095 y_1163)) false)))
(assert (forall ((y_1164 Int) (x_28095 Int) (x_28094 Int))
	(=> (and true (diseqInt x_28094 y_1164) (leq_26 true_191 x_28095 y_1164) (leq_26 true_191 x_28094 x_28095) (leq_26 false_191 x_28094 y_1164) (leq_26 false_191 x_28094 x_28095) (leq_26 false_191 x_28095 y_1164)) false)))
(assert (forall ((y_1164 Int) (x_28095 Int) (x_28094 Int))
	(=> (and true (diseqInt x_28095 y_1164) (leq_26 true_191 x_28095 y_1164) (leq_26 false_191 x_28094 x_28095) (leq_26 false_191 x_28094 y_1164) (leq_26 false_191 x_28094 x_28095) (leq_26 false_191 x_28095 y_1164)) false)))
(assert (forall ((y_1164 Int) (x_28095 Int) (x_28094 Int))
	(=> (and true (diseqInt x_28094 x_28095) (leq_26 false_191 x_28095 y_1164) (leq_26 true_191 x_28094 x_28095) (leq_26 false_191 x_28094 y_1164) (leq_26 false_191 x_28094 x_28095) (leq_26 false_191 x_28095 y_1164)) false)))
(assert (forall ((y_1164 Int) (x_28095 Int) (x_28094 Int))
	(=> (and true (diseqInt x_28095 x_28095) (leq_26 false_191 x_28095 y_1164) (leq_26 false_191 x_28094 x_28095) (leq_26 false_191 x_28094 y_1164) (leq_26 false_191 x_28094 x_28095) (leq_26 false_191 x_28095 y_1164)) false)))
(check-sat)
